50
1 0 6
2 0 2
2 1 12
3 0 9
3 1 15
3 2 14
4 0 1
4 1 2
4 2 11
4 3 3
5 0 10
5 1 17
5 2 15
5 3 5
5 4 10
6 0 13
6 1 14
6 2 18
6 3 11
6 4 7
6 5 4
7 0 17
7 1 7
7 2 9
7 3 8
7 4 6
7 5 19
7 6 14
8 0 12
8 1 18
8 2 12
8 3 19
8 4 17
8 5 9
8 6 13
8 7 3
9 0 8
9 1 18
9 2 16
9 3 5
9 4 8
9 5 9
9 6 18
9 7 7
9 8 15
10 0 10
10 1 4
10 2 10
10 3 20
10 4 5
10 5 2
10 6 2
10 7 4
10 8 13
10 9 14
11 0 1
11 1 16
11 2 9
11 3 1
11 4 11
11 5 4
11 6 3
11 7 3
11 8 15
11 9 9
11 10 12
12 0 10
12 1 20
12 2 17
12 3 4
12 4 13
12 5 13
12 6 7
12 7 12
12 8 1
12 9 13
12 10 4
12 11 13
13 0 15
13 1 7
13 2 10
13 3 4
13 4 3
13 5 8
13 6 1
13 7 5
13 8 4
13 9 8
13 10 17
13 11 12
13 12 19
14 0 20
14 1 3
14 2 1
14 3 20
14 4 5
14 5 15
14 6 13
14 7 20
14 8 9
14 9 16
14 10 8
14 11 9
14 12 14
14 13 15
15 0 16
15 1 8
15 2 1
15 3 17
15 4 20
15 5 10
15 6 13
15 7 8
15 8 5
15 9 11
15 10 20
15 11 13
15 12 3
15 13 15
15 14 1
16 0 7
16 1 16
16 2 14
16 3 4
16 4 13
16 5 14
16 6 4
16 7 14
16 8 17
16 9 5
16 10 10
16 11 19
16 12 3
16 13 9
16 14 3
16 15 20
17 0 1
17 1 3
17 2 5
17 3 13
17 4 3
17 5 17
17 6 4
17 7 5
17 8 17
17 9 3
17 10 19
17 11 7
17 12 16
17 13 3
17 14 9
17 15 10
17 16 17
18 0 3
18 1 6
18 2 11
18 3 2
18 4 2
18 5 12
18 6 11
18 7 10
18 8 8
18 9 10
18 10 18
18 11 10
18 12 4
18 13 3
18 14 11
18 15 7
18 16 10
18 17 18
19 0 7
19 1 8
19 2 11
19 3 17
19 4 15
19 5 14
19 6 2
19 7 4
19 8 4
19 9 11
19 10 14
19 11 2
19 12 18
19 13 8
19 14 9
19 15 1
19 16 12
19 17 11
19 18 8
20 0 7
20 1 1
20 2 16
20 3 7
20 4 19
20 5 15
20 6 6
20 7 9
20 8 15
20 9 8
20 10 17
20 11 14
20 12 5
20 13 13
20 14 5
20 15 5
20 16 19
20 17 17
20 18 12
20 19 8
21 0 17
21 1 16
21 2 14
21 3 7
21 4 11
21 5 1
21 6 14
21 7 6
21 8 1
21 9 2
21 10 4
21 11 6
21 12 4
21 13 7
21 14 7
21 15 11
21 16 10
21 17 15
21 18 11
21 19 15
21 20 10
22 0 15
22 1 3
22 2 20
22 3 2
22 4 14
22 5 4
22 6 19
22 7 13
22 8 17
22 9 9
22 10 13
22 11 10
22 12 13
22 13 5
22 14 6
22 15 2
22 16 4
22 17 12
22 18 15
22 19 9
22 20 14
22 21 11
23 0 9
23 1 3
23 2 6
23 3 17
23 4 11
23 5 5
23 6 18
23 7 18
23 8 9
23 9 11
23 10 16
23 11 17
23 12 8
23 13 14
23 14 1
23 15 15
23 16 5
23 17 13
23 18 1
23 19 20
23 20 7
23 21 3
23 22 9
24 0 10
24 1 7
24 2 20
24 3 3
24 4 13
24 5 12
24 6 1
24 7 3
24 8 3
24 9 1
24 10 10
24 11 11
24 12 6
24 13 19
24 14 16
24 15 17
24 16 6
24 17 9
24 18 5
24 19 11
24 20 12
24 21 5
24 22 19
24 23 13
25 0 3
25 1 9
25 2 4
25 3 18
25 4 1
25 5 1
25 6 14
25 7 20
25 8 16
25 9 20
25 10 15
25 11 19
25 12 3
25 13 18
25 14 12
25 15 16
25 16 12
25 17 15
25 18 10
25 19 2
25 20 12
25 21 4
25 22 18
25 23 16
25 24 8
26 0 4
26 1 9
26 2 18
26 3 17
26 4 9
26 5 1
26 6 14
26 7 9
26 8 4
26 9 13
26 10 18
26 11 18
26 12 3
26 13 6
26 14 3
26 15 17
26 16 2
26 17 10
26 18 19
26 19 20
26 20 3
26 21 4
26 22 19
26 23 8
26 24 17
26 25 15
27 0 13
27 1 18
27 2 11
27 3 16
27 4 7
27 5 15
27 6 9
27 7 15
27 8 7
27 9 4
27 10 20
27 11 12
27 12 13
27 13 4
27 14 13
27 15 17
27 16 11
27 17 16
27 18 15
27 19 17
27 20 12
27 21 1
27 22 18
27 23 12
27 24 13
27 25 14
27 26 20
28 0 15
28 1 9
28 2 19
28 3 17
28 4 10
28 5 3
28 6 18
28 7 19
28 8 10
28 9 12
28 10 7
28 11 9
28 12 5
28 13 2
28 14 11
28 15 4
28 16 8
28 17 20
28 18 15
28 19 5
28 20 11
28 21 1
28 22 7
28 23 13
28 24 5
28 25 18
28 26 18
28 27 1
29 0 17
29 1 12
29 2 2
29 3 7
29 4 7
29 5 13
29 6 6
29 7 10
29 8 2
29 9 17
29 10 9
29 11 2
29 12 9
29 13 17
29 14 3
29 15 13
29 16 11
29 17 15
29 18 17
29 19 8
29 20 8
29 21 5
29 22 10
29 23 13
29 24 17
29 25 8
29 26 18
29 27 6
29 28 18
30 0 7
30 1 10
30 2 5
30 3 20
30 4 6
30 5 11
30 6 20
30 7 12
30 8 9
30 9 6
30 10 18
30 11 10
30 12 5
30 13 15
30 14 2
30 15 13
30 16 11
30 17 5
30 18 10
30 19 12
30 20 8
30 21 6
30 22 1
30 23 11
30 24 17
30 25 13
30 26 13
30 27 12
30 28 5
30 29 19
31 0 11
31 1 2
31 2 17
31 3 17
31 4 7
31 5 1
31 6 2
31 7 8
31 8 18
31 9 4
31 10 20
31 11 3
31 12 19
31 13 9
31 14 17
31 15 17
31 16 10
31 17 6
31 18 5
31 19 8
31 20 15
31 21 15
31 22 11
31 23 16
31 24 8
31 25 17
31 26 1
31 27 5
31 28 20
31 29 13
31 30 17
32 0 10
32 1 12
32 2 10
32 3 17
32 4 7
32 5 4
32 6 16
32 7 4
32 8 8
32 9 14
32 10 4
32 11 17
32 12 13
32 13 16
32 14 3
32 15 5
32 16 4
32 17 5
32 18 1
32 19 12
32 20 10
32 21 17
32 22 4
32 23 15
32 24 6
32 25 12
32 26 19
32 27 14
32 28 16
32 29 9
32 30 10
32 31 15
33 0 12
33 1 2
33 2 8
33 3 5
33 4 4
33 5 11
33 6 2
33 7 9
33 8 5
33 9 18
33 10 9
33 11 13
33 12 17
33 13 5
33 14 9
33 15 18
33 16 16
33 17 11
33 18 9
33 19 19
33 20 17
33 21 7
33 22 12
33 23 16
33 24 9
33 25 10
33 26 12
33 27 10
33 28 14
33 29 11
33 30 10
33 31 1
33 32 13
34 0 15
34 1 4
34 2 7
34 3 13
34 4 20
34 5 9
34 6 6
34 7 14
34 8 15
34 9 2
34 10 2
34 11 6
34 12 2
34 13 7
34 14 3
34 15 13
34 16 14
34 17 9
34 18 13
34 19 12
34 20 7
34 21 7
34 22 11
34 23 12
34 24 10
34 25 18
34 26 10
34 27 8
34 28 13
34 29 10
34 30 1
34 31 15
34 32 9
34 33 18
35 0 12
35 1 13
35 2 17
35 3 5
35 4 13
35 5 3
35 6 19
35 7 17
35 8 18
35 9 8
35 10 15
35 11 9
35 12 19
35 13 9
35 14 1
35 15 12
35 16 14
35 17 5
35 18 15
35 19 19
35 20 15
35 21 11
35 22 15
35 23 14
35 24 6
35 25 5
35 26 14
35 27 17
35 28 3
35 29 5
35 30 2
35 31 8
35 32 15
35 33 1
35 34 1
36 0 4
36 1 18
36 2 3
36 3 14
36 4 7
36 5 14
36 6 19
36 7 3
36 8 4
36 9 19
36 10 11
36 11 1
36 12 14
36 13 13
36 14 18
36 15 1
36 16 10
36 17 1
36 18 18
36 19 11
36 20 4
36 21 15
36 22 6
36 23 4
36 24 6
36 25 19
36 26 2
36 27 10
36 28 17
36 29 9
36 30 2
36 31 20
36 32 16
36 33 12
36 34 13
36 35 15
37 0 17
37 1 19
37 2 10
37 3 16
37 4 11
37 5 7
37 6 14
37 7 17
37 8 20
37 9 13
37 10 17
37 11 3
37 12 19
37 13 17
37 14 4
37 15 17
37 16 3
37 17 20
37 18 7
37 19 4
37 20 20
37 21 20
37 22 5
37 23 5
37 24 4
37 25 10
37 26 18
37 27 13
37 28 15
37 29 15
37 30 6
37 31 20
37 32 6
37 33 14
37 34 14
37 35 15
37 36 2
38 0 16
38 1 9
38 2 11
38 3 15
38 4 4
38 5 16
38 6 8
38 7 16
38 8 4
38 9 15
38 10 13
38 11 8
38 12 7
38 13 18
38 14 1
38 15 3
38 16 14
38 17 19
38 18 15
38 19 11
38 20 11
38 21 15
38 22 5
38 23 5
38 24 5
38 25 3
38 26 13
38 27 20
38 28 13
38 29 15
38 30 3
38 31 13
38 32 6
38 33 5
38 34 15
38 35 9
38 36 6
38 37 8
39 0 9
39 1 3
39 2 15
39 3 14
39 4 5
39 5 5
39 6 5
39 7 14
39 8 6
39 9 7
39 10 6
39 11 7
39 12 20
39 13 12
39 14 18
39 15 9
39 16 6
39 17 10
39 18 3
39 19 19
39 20 18
39 21 18
39 22 3
39 23 18
39 24 11
39 25 13
39 26 19
39 27 4
39 28 16
39 29 9
39 30 20
39 31 13
39 32 2
39 33 7
39 34 12
39 35 11
39 36 17
39 37 16
39 38 19
40 0 3
40 1 17
40 2 16
40 3 15
40 4 16
40 5 11
40 6 17
40 7 14
40 8 19
40 9 9
40 10 2
40 11 7
40 12 7
40 13 2
40 14 17
40 15 15
40 16 13
40 17 11
40 18 10
40 19 5
40 20 5
40 21 9
40 22 6
40 23 12
40 24 3
40 25 7
40 26 7
40 27 6
40 28 12
40 29 15
40 30 10
40 31 14
40 32 17
40 33 13
40 34 4
40 35 12
40 36 5
40 37 8
40 38 8
40 39 13
41 0 10
41 1 9
41 2 10
41 3 15
41 4 13
41 5 10
41 6 7
41 7 10
41 8 6
41 9 16
41 10 17
41 11 13
41 12 14
41 13 20
41 14 19
41 15 10
41 16 15
41 17 4
41 18 2
41 19 12
41 20 8
41 21 4
41 22 8
41 23 10
41 24 15
41 25 9
41 26 10
41 27 19
41 28 14
41 29 19
41 30 17
41 31 19
41 32 6
41 33 19
41 34 4
41 35 16
41 36 17
41 37 2
41 38 15
41 39 13
41 40 8
42 0 19
42 1 7
42 2 11
42 3 12
42 4 17
42 5 9
42 6 19
42 7 15
42 8 10
42 9 18
42 10 12
42 11 18
42 12 1
42 13 12
42 14 1
42 15 14
42 16 4
42 17 19
42 18 6
42 19 11
42 20 16
42 21 4
42 22 5
42 23 13
42 24 11
42 25 8
42 26 14
42 27 7
42 28 16
42 29 11
42 30 10
42 31 20
42 32 10
42 33 15
42 34 6
42 35 2
42 36 15
42 37 5
42 38 3
42 39 9
42 40 20
42 41 19
43 0 6
43 1 4
43 2 19
43 3 16
43 4 12
43 5 17
43 6 10
43 7 20
43 8 11
43 9 2
43 10 15
43 11 18
43 12 10
43 13 12
43 14 14
43 15 6
43 16 5
43 17 4
43 18 19
43 19 1
43 20 11
43 21 3
43 22 12
43 23 9
43 24 19
43 25 18
43 26 12
43 27 11
43 28 20
43 29 7
43 30 4
43 31 10
43 32 18
43 33 14
43 34 4
43 35 8
43 36 19
43 37 1
43 38 12
43 39 20
43 40 13
43 41 16
43 42 14
44 0 9
44 1 17
44 2 4
44 3 6
44 4 10
44 5 13
44 6 12
44 7 13
44 8 12
44 9 2
44 10 8
44 11 4
44 12 17
44 13 7
44 14 13
44 15 4
44 16 12
44 17 4
44 18 19
44 19 4
44 20 11
44 21 8
44 22 13
44 23 11
44 24 6
44 25 6
44 26 5
44 27 10
44 28 10
44 29 19
44 30 16
44 31 10
44 32 15
44 33 12
44 34 19
44 35 3
44 36 9
44 37 10
44 38 3
44 39 7
44 40 1
44 41 10
44 42 19
44 43 16
45 0 14
45 1 16
45 2 7
45 3 10
45 4 11
45 5 19
45 6 13
45 7 12
45 8 3
45 9 14
45 10 10
45 11 2
45 12 20
45 13 3
45 14 19
45 15 13
45 16 14
45 17 14
45 18 7
45 19 17
45 20 8
45 21 3
45 22 4
45 23 6
45 24 15
45 25 13
45 26 9
45 27 17
45 28 3
45 29 12
45 30 6
45 31 6
45 32 15
45 33 6
45 34 15
45 35 1
45 36 5
45 37 18
45 38 11
45 39 12
45 40 12
45 41 7
45 42 5
45 43 7
45 44 20
46 0 5
46 1 8
46 2 19
46 3 17
46 4 2
46 5 2
46 6 8
46 7 8
46 8 15
46 9 11
46 10 7
46 11 14
46 12 4
46 13 8
46 14 5
46 15 20
46 16 4
46 17 12
46 18 1
46 19 16
46 20 2
46 21 16
46 22 5
46 23 2
46 24 5
46 25 13
46 26 13
46 27 5
46 28 13
46 29 1
46 30 2
46 31 11
46 32 7
46 33 8
46 34 14
46 35 10
46 36 5
46 37 12
46 38 8
46 39 3
46 40 12
46 41 8
46 42 4
46 43 13
46 44 5
46 45 11
47 0 18
47 1 7
47 2 10
47 3 18
47 4 14
47 5 7
47 6 17
47 7 1
47 8 5
47 9 8
47 10 7
47 11 9
47 12 11
47 13 11
47 14 8
47 15 6
47 16 1
47 17 13
47 18 9
47 19 6
47 20 8
47 21 4
47 22 2
47 23 12
47 24 12
47 25 4
47 26 11
47 27 20
47 28 18
47 29 7
47 30 19
47 31 13
47 32 3
47 33 2
47 34 4
47 35 16
47 36 1
47 37 2
47 38 7
47 39 17
47 40 13
47 41 10
47 42 17
47 43 1
47 44 3
47 45 13
47 46 15
48 0 8
48 1 4
48 2 12
48 3 7
48 4 13
48 5 12
48 6 14
48 7 2
48 8 14
48 9 9
48 10 10
48 11 4
48 12 5
48 13 15
48 14 8
48 15 8
48 16 20
48 17 6
48 18 13
48 19 10
48 20 12
48 21 2
48 22 18
48 23 13
48 24 4
48 25 11
48 26 10
48 27 10
48 28 16
48 29 10
48 30 16
48 31 8
48 32 17
48 33 6
48 34 12
48 35 14
48 36 10
48 37 1
48 38 8
48 39 10
48 40 9
48 41 15
48 42 17
48 43 14
48 44 18
48 45 19
48 46 14
48 47 8
49 0 16
49 1 14
49 2 8
49 3 17
49 4 1
49 5 14
49 6 15
49 7 14
49 8 14
49 9 8
49 10 9
49 11 1
49 12 16
49 13 12
49 14 11
49 15 2
49 16 18
49 17 1
49 18 16
49 19 18
49 20 18
49 21 9
49 22 15
49 23 16
49 24 18
49 25 12
49 26 5
49 27 14
49 28 19
49 29 15
49 30 17
49 31 12
49 32 11
49 33 7
49 34 1
49 35 16
49 36 6
49 37 16
49 38 16
49 39 10
49 40 5
49 41 20
49 42 19
49 43 5
49 44 17
49 45 6
49 46 10
49 47 18
49 48 14
